<number of tasks>
50

<cycle time>
1000

<order strength>
0.198


<task times>
1 146
2 29
3 153
4 35
5 177
6 158
7 282
8 140
9 26
10 225
11 54
12 181
13 130
14 21
15 57
16 282
17 81
18 133
19 203
20 49
21 96
22 101
23 173
24 32
25 119
26 246
27 179
28 233
29 171
30 108
31 131
32 35
33 94
34 149
35 76
36 120
37 32
38 145
39 41
40 211
41 69
42 36
43 32
44 217
45 86
46 67
47 99
48 52
49 175
50 79

<precedence relations>
1,9
2,11
2,44
3,14
3,15
6,8
6,10
6,13
7,12
8,17
9,19
9,43
11,16
12,18
13,21
14,20
15,22
15,45
17,25
17,27
18,23
22,24
23,27
23,30
23,31
24,28
24,42
25,26
25,29
25,32
27,38
28,40
29,34
29,36
29,37
31,33
31,35
33,39
35,40
37,42
38,41
38,42
38,43
40,44
40,46
41,45
41,47
41,50
42,46
42,48
43,49

<end>
